; Options: -in -smt2
(set-option :produce-unsat-assumptions true)

(declare-fun start!2335 () Bool)

(assert start!2335)

(declare-fun b!12326 () Bool)

(declare-fun e!7005 () Bool)

(declare-fun lt!6455 () (_ BitVec 32))

(assert (=> b!12326 (= e!7005 (or (bvslt lt!6455 #b00000000000000000000000000000000) (bvsge lt!6455 #b00000000000000000000000000010100)))))

(declare-fun i!271 () (_ BitVec 32))

(assert (=> b!12326 (= lt!6455 (bvadd i!271 #b00000000000000000000000000000001))))

(declare-fun b!12327 () Bool)

(declare-fun e!7004 () Bool)

(assert (=> b!12327 (= e!7004 e!7005)))

(declare-fun res!9655 () Bool)

(assert (=> b!12327 (=> (not res!9655) (not e!7005))))

(declare-fun lt!6454 () Bool)

(declare-datatypes ((Unit!1376 0))(
  ( (Unit!1377) )
))
(declare-datatypes ((array!910 0))(
  ( (array!911 (arr!399 (Array (_ BitVec 32) (_ BitVec 32))) (size!399 (_ BitVec 32))) )
))
(declare-datatypes ((tuple3!230 0))(
  ( (tuple3!231 (_1!318 Unit!1376) (_2!318 array!910) (_3!255 (_ BitVec 32))) )
))
(declare-fun lt!6459 () tuple3!230)

(declare-fun jz!59 () (_ BitVec 32))

(assert (=> b!12327 (= res!9655 (and (bvsle #b00000000000000000000000000000000 (select (arr!399 (_2!318 lt!6459)) (bvsub jz!59 #b00000000000000000000000000000001))) (bvsle (select (arr!399 (_2!318 lt!6459)) (bvsub jz!59 #b00000000000000000000000000000001)) #b00000000100000000000000000000000) (or (not lt!6454) (not (= (_3!255 lt!6459) #b00000000000000000000000000000000)) (not (= (select (arr!399 (_2!318 lt!6459)) (bvsub jz!59 #b00000000000000000000000000000001)) #b00000000100000000000000000000000))) (bvsle (select (arr!399 (_2!318 lt!6459)) (bvsub jz!59 #b00000000000000000000000000000001)) #b00000000011111111111111111111111) (bvsle #b00000000000000000000000000000000 i!271) (bvsle i!271 jz!59)))))

(declare-fun e!7010 () tuple3!230)

(assert (=> b!12327 (= lt!6459 e!7010)))

(declare-fun c!1549 () Bool)

(assert (=> b!12327 (= c!1549 lt!6454)))

(declare-fun lt!6460 () (_ BitVec 32))

(assert (=> b!12327 (= lt!6460 #b00000000000000000000000000000000)))

(declare-datatypes ((tuple4!280 0))(
  ( (tuple4!281 (_1!319 Unit!1376) (_2!319 array!910) (_3!256 (_ BitVec 32)) (_4!140 (_ FloatingPoint 11 53))) )
))
(declare-fun lt!6461 () tuple4!280)

(assert (=> b!12327 (= lt!6454 (bvsge (select (arr!399 (_2!319 lt!6461)) (bvsub jz!59 #b00000000000000000000000000000001)) #b00000000100000000000000000000000))))

(declare-fun b!12328 () Bool)

(declare-fun res!9658 () Bool)

(declare-fun e!7006 () Bool)

(assert (=> b!12328 (=> (not res!9658) (not e!7006))))

(declare-datatypes ((array!912 0))(
  ( (array!913 (arr!400 (Array (_ BitVec 32) (_ FloatingPoint 11 53))) (size!400 (_ BitVec 32))) )
))
(declare-fun q!93 () array!912)

(declare-fun qInv!0 (array!912) Bool)

(assert (=> b!12328 (= res!9658 (qInv!0 q!93))))

(declare-fun b!12329 () Bool)

(assert (=> b!12329 (= e!7006 e!7004)))

(declare-fun res!9659 () Bool)

(assert (=> b!12329 (=> (not res!9659) (not e!7004))))

(declare-fun lt!6456 () (_ FloatingPoint 11 53))

(assert (=> b!12329 (= res!9659 (and (fp.leq (fp #b0 #b00000000000 #b0000000000000000000000000000000000000000000000000000) lt!6456) (fp.lt lt!6456 (fp #b0 #b10000000010 #b0000000000000000000000000000000000000000000000000000))))))

(assert (=> b!12329 (= lt!6456 (fp.sub roundNearestTiesToEven (_4!140 lt!6461) (fp.mul roundNearestTiesToEven (fp #b0 #b10000000010 #b0000000000000000000000000000000000000000000000000000) ((_ to_fp 11 53) roundNearestTiesToEven (ite (fp.isNaN (fp.mul roundNearestTiesToEven (_4!140 lt!6461) (fp #b0 #b01111111100 #b0000000000000000000000000000000000000000000000000000))) #b0000000000000000000000000000000000000000000000000000000000000000 (ite (fp.gt (fp.mul roundNearestTiesToEven (_4!140 lt!6461) (fp #b0 #b01111111100 #b0000000000000000000000000000000000000000000000000000)) ((_ to_fp 11 53) roundTowardZero #b0111111111111111111111111111111111111111111111111111111111111111)) #b0111111111111111111111111111111111111111111111111111111111111111 (ite (fp.lt (fp.mul roundNearestTiesToEven (_4!140 lt!6461) (fp #b0 #b01111111100 #b0000000000000000000000000000000000000000000000000000)) ((_ to_fp 11 53) roundTowardZero #b1000000000000000000000000000000000000000000000000000000000000000)) #b1000000000000000000000000000000000000000000000000000000000000000 ((_ fp.to_sbv 64) roundTowardZero (fp.mul roundNearestTiesToEven (_4!140 lt!6461) (fp #b0 #b01111111100 #b0000000000000000000000000000000000000000000000000000))))))))))))

(declare-fun e!7002 () tuple4!280)

(assert (=> b!12329 (= lt!6461 e!7002)))

(declare-fun c!1550 () Bool)

(assert (=> b!12329 (= c!1550 (bvsgt jz!59 #b00000000000000000000000000000000))))

(declare-fun lt!6457 () (_ FloatingPoint 11 53))

(assert (=> b!12329 (= lt!6457 (select (arr!400 q!93) jz!59))))

(declare-fun lt!6452 () array!910)

(assert (=> b!12329 (= lt!6452 (array!911 ((as const (Array (_ BitVec 32) (_ BitVec 32))) #b00000000000000000000000000000000) #b00000000000000000000000000010100))))

(declare-fun lt!6453 () (_ BitVec 32))

(declare-datatypes ((tuple4!282 0))(
  ( (tuple4!283 (_1!320 Unit!1376) (_2!320 (_ BitVec 32)) (_3!257 array!910) (_4!141 (_ BitVec 32))) )
))
(declare-fun e!7007 () tuple4!282)

(declare-fun b!12330 () Bool)

(declare-fun Unit!1378 () Unit!1376)

(assert (=> b!12330 (= e!7007 (tuple4!283 Unit!1378 lt!6453 (_2!319 lt!6461) lt!6460))))

(declare-fun b!12331 () Bool)

(declare-fun res!9653 () Bool)

(assert (=> b!12331 (=> (not res!9653) (not e!7005))))

(declare-fun iq!194 () array!910)

(declare-fun QInt!0 ((_ BitVec 32)) Bool)

(assert (=> b!12331 (= res!9653 (QInt!0 (select (arr!399 iq!194) (bvsub (bvsub jz!59 #b00000000000000000000000000000001) i!271))))))

(declare-fun res!9657 () Bool)

(assert (=> start!2335 (=> (not res!9657) (not e!7006))))

(assert (=> start!2335 (= res!9657 (and (bvsle #b00000000000000000000000000000010 jz!59) (bvslt jz!59 #b00000000000000000000000000010011)))))

(assert (=> start!2335 e!7006))

(assert (=> start!2335 true))

(declare-fun array_inv!348 (array!910) Bool)

(assert (=> start!2335 (array_inv!348 iq!194)))

(declare-fun qq!48 () array!912)

(declare-fun array_inv!349 (array!912) Bool)

(assert (=> start!2335 (array_inv!349 qq!48)))

(assert (=> start!2335 (array_inv!349 q!93)))

(declare-fun b!12332 () Bool)

(declare-fun res!9654 () Bool)

(assert (=> b!12332 (=> (not res!9654) (not e!7005))))

(assert (=> b!12332 (= res!9654 (and (bvsle (select (arr!399 iq!194) (bvsub jz!59 #b00000000000000000000000000000001)) #b00000000011111111111111111111111) (= (size!400 qq!48) #b00000000000000000000000000010100)))))

(declare-fun b!12333 () Bool)

(declare-fun computeModuloWhile!3 ((_ BitVec 32) array!912 (_ BitVec 32) array!910 (_ BitVec 32)) tuple4!282)

(assert (=> b!12333 (= e!7007 (computeModuloWhile!3 jz!59 q!93 lt!6453 (_2!319 lt!6461) lt!6460))))

(declare-fun b!12334 () Bool)

(declare-fun res!9652 () Bool)

(assert (=> b!12334 (=> (not res!9652) (not e!7005))))

(declare-fun qqInv!0 (array!912) Bool)

(assert (=> b!12334 (= res!9652 (qqInv!0 qq!48))))

(declare-fun b!12335 () Bool)

(declare-fun lt!6458 () tuple4!282)

(declare-fun lt!6462 () (_ BitVec 32))

(declare-fun Unit!1379 () Unit!1376)

(assert (=> b!12335 (= e!7010 (tuple3!231 Unit!1379 (array!911 (store (arr!399 (_3!257 lt!6458)) (bvsub jz!59 #b00000000000000000000000000000001) (ite (= (_4!141 lt!6458) #b00000000000000000000000000000000) (bvsub #b00000001000000000000000000000000 lt!6462) (bvsub #b00000000111111111111111111111111 lt!6462))) (size!399 (_3!257 lt!6458))) (_4!141 lt!6458)))))

(assert (=> b!12335 (= lt!6453 #b00000000000000000000000000000000)))

(declare-fun c!1548 () Bool)

(assert (=> b!12335 (= c!1548 (bvslt lt!6453 (bvsub jz!59 #b00000000000000000000000000000001)))))

(assert (=> b!12335 (= lt!6458 e!7007)))

(assert (=> b!12335 (= lt!6462 (select (arr!399 (_3!257 lt!6458)) (bvsub jz!59 #b00000000000000000000000000000001)))))

(declare-fun b!12336 () Bool)

(declare-fun Unit!1380 () Unit!1376)

(assert (=> b!12336 (= e!7002 (tuple4!281 Unit!1380 lt!6452 jz!59 lt!6457))))

(declare-fun b!12337 () Bool)

(declare-fun res!9660 () Bool)

(assert (=> b!12337 (=> (not res!9660) (not e!7005))))

(assert (=> b!12337 (= res!9660 (bvslt i!271 jz!59))))

(declare-fun b!12338 () Bool)

(declare-fun computeModuloWhile!0 ((_ BitVec 32) array!912 array!910 (_ BitVec 32) (_ FloatingPoint 11 53)) tuple4!280)

(assert (=> b!12338 (= e!7002 (computeModuloWhile!0 jz!59 q!93 lt!6452 jz!59 lt!6457))))

(declare-fun b!12339 () Bool)

(declare-fun res!9656 () Bool)

(assert (=> b!12339 (=> (not res!9656) (not e!7005))))

(declare-fun iqInv!0 (array!910) Bool)

(assert (=> b!12339 (= res!9656 (iqInv!0 iq!194))))

(declare-fun b!12340 () Bool)

(declare-fun Unit!1381 () Unit!1376)

(assert (=> b!12340 (= e!7010 (tuple3!231 Unit!1381 (_2!319 lt!6461) lt!6460))))

(assert (= (and start!2335 res!9657) b!12328))

(assert (= (and b!12328 res!9658) b!12329))

(assert (= (and b!12329 c!1550) b!12338))

(assert (= (and b!12329 (not c!1550)) b!12336))

(assert (= (and b!12329 res!9659) b!12327))

(assert (= (and b!12327 c!1549) b!12335))

(assert (= (and b!12327 (not c!1549)) b!12340))

(assert (= (and b!12335 c!1548) b!12333))

(assert (= (and b!12335 (not c!1548)) b!12330))

(assert (= (and b!12327 res!9655) b!12339))

(assert (= (and b!12339 res!9656) b!12332))

(assert (= (and b!12332 res!9654) b!12334))

(assert (= (and b!12334 res!9652) b!12337))

(assert (= (and b!12337 res!9660) b!12331))

(assert (= (and b!12331 res!9653) b!12326))

(declare-fun m!18311 () Bool)

(assert (=> b!12338 m!18311))

(declare-fun m!18313 () Bool)

(assert (=> b!12332 m!18313))

(declare-fun m!18315 () Bool)

(assert (=> b!12334 m!18315))

(declare-fun m!18317 () Bool)

(assert (=> start!2335 m!18317))

(declare-fun m!18319 () Bool)

(assert (=> start!2335 m!18319))

(declare-fun m!18321 () Bool)

(assert (=> start!2335 m!18321))

(declare-fun m!18323 () Bool)

(assert (=> b!12331 m!18323))

(assert (=> b!12331 m!18323))

(declare-fun m!18325 () Bool)

(assert (=> b!12331 m!18325))

(declare-fun m!18327 () Bool)

(assert (=> b!12329 m!18327))

(declare-fun m!18329 () Bool)

(assert (=> b!12328 m!18329))

(declare-fun m!18331 () Bool)

(assert (=> b!12339 m!18331))

(declare-fun m!18333 () Bool)

(assert (=> b!12335 m!18333))

(declare-fun m!18335 () Bool)

(assert (=> b!12335 m!18335))

(declare-fun m!18337 () Bool)

(assert (=> b!12333 m!18337))

(declare-fun m!18339 () Bool)

(assert (=> b!12327 m!18339))

(declare-fun m!18341 () Bool)

(assert (=> b!12327 m!18341))

(check-sat (not b!12339) (not b!12338) (not start!2335) (not b!12333) (not b!12334) (not b!12328) (not b!12331))
(check-sat)
